(set-logic HORN)
(declare-datatypes ((Nat_540 0)) (((Z_1934 ) (S_429 (unS_638 Nat_540)))))
(declare-fun diseqNat_540 (Nat_540 Nat_540) Bool)
(declare-fun unS_639 (Nat_540 Nat_540) Bool)
(declare-fun isZ_396 (Nat_540) Bool)
(declare-fun isS_396 (Nat_540) Bool)
(assert (forall ((x_54205 Nat_540))
	(unS_639 x_54205 (S_429 x_54205))))
(assert (isZ_396 Z_1934))
(assert (forall ((x_54207 Nat_540))
	(isS_396 (S_429 x_54207))))
(assert (forall ((x_54208 Nat_540))
	(diseqNat_540 Z_1934 (S_429 x_54208))))
(assert (forall ((x_54209 Nat_540))
	(diseqNat_540 (S_429 x_54209) Z_1934)))
(assert (forall ((x_54210 Nat_540) (x_54211 Nat_540))
	(=> (diseqNat_540 x_54210 x_54211)
	    (diseqNat_540 (S_429 x_54210) (S_429 x_54211)))))
(declare-fun add_345 (Nat_540 Nat_540 Nat_540) Bool)
(declare-fun minus_340 (Nat_540 Nat_540 Nat_540) Bool)
(declare-fun le_319 (Nat_540 Nat_540) Bool)
(declare-fun ge_319 (Nat_540 Nat_540) Bool)
(declare-fun lt_339 (Nat_540 Nat_540) Bool)
(declare-fun gt_322 (Nat_540 Nat_540) Bool)
(declare-fun mult_319 (Nat_540 Nat_540 Nat_540) Bool)
(declare-fun div_319 (Nat_540 Nat_540 Nat_540) Bool)
(declare-fun mod_321 (Nat_540 Nat_540 Nat_540) Bool)
(assert (forall ((y_2169 Nat_540))
	(add_345 y_2169 Z_1934 y_2169)))
(assert (forall ((x_54181 Nat_540) (y_2169 Nat_540) (r_392 Nat_540))
	(=> (add_345 r_392 x_54181 y_2169)
	    (add_345 (S_429 r_392) (S_429 x_54181) y_2169))))
(assert (forall ((y_2169 Nat_540))
	(minus_340 Z_1934 Z_1934 y_2169)))
(assert (forall ((x_54181 Nat_540) (y_2169 Nat_540) (r_392 Nat_540))
	(=> (minus_340 r_392 x_54181 y_2169)
	    (minus_340 (S_429 r_392) (S_429 x_54181) y_2169))))
(assert (forall ((y_2169 Nat_540))
	(le_319 Z_1934 y_2169)))
(assert (forall ((x_54181 Nat_540) (y_2169 Nat_540))
	(=> (le_319 x_54181 y_2169)
	    (le_319 (S_429 x_54181) (S_429 y_2169)))))
(assert (forall ((y_2169 Nat_540))
	(ge_319 y_2169 Z_1934)))
(assert (forall ((x_54181 Nat_540) (y_2169 Nat_540))
	(=> (ge_319 x_54181 y_2169)
	    (ge_319 (S_429 x_54181) (S_429 y_2169)))))
(assert (forall ((y_2169 Nat_540))
	(lt_339 Z_1934 (S_429 y_2169))))
(assert (forall ((x_54181 Nat_540) (y_2169 Nat_540))
	(=> (lt_339 x_54181 y_2169)
	    (lt_339 (S_429 x_54181) (S_429 y_2169)))))
(assert (forall ((y_2169 Nat_540))
	(gt_322 (S_429 y_2169) Z_1934)))
(assert (forall ((x_54181 Nat_540) (y_2169 Nat_540))
	(=> (gt_322 x_54181 y_2169)
	    (gt_322 (S_429 x_54181) (S_429 y_2169)))))
(assert (forall ((y_2169 Nat_540))
	(mult_319 Z_1934 Z_1934 y_2169)))
(assert (forall ((x_54181 Nat_540) (y_2169 Nat_540) (r_392 Nat_540) (z_1935 Nat_540))
	(=>	(and (mult_319 r_392 x_54181 y_2169)
			(add_345 z_1935 r_392 y_2169))
		(mult_319 z_1935 (S_429 x_54181) y_2169))))
(assert (forall ((x_54181 Nat_540) (y_2169 Nat_540))
	(=> (lt_339 x_54181 y_2169)
	    (div_319 Z_1934 x_54181 y_2169))))
(assert (forall ((x_54181 Nat_540) (y_2169 Nat_540) (r_392 Nat_540) (z_1935 Nat_540))
	(=>	(and (ge_319 x_54181 y_2169)
			(minus_340 z_1935 x_54181 y_2169)
			(div_319 r_392 z_1935 y_2169))
		(div_319 (S_429 r_392) x_54181 y_2169))))
(assert (forall ((x_54181 Nat_540) (y_2169 Nat_540))
	(=> (lt_339 x_54181 y_2169)
	    (mod_321 x_54181 x_54181 y_2169))))
(assert (forall ((x_54181 Nat_540) (y_2169 Nat_540) (r_392 Nat_540) (z_1935 Nat_540))
	(=>	(and (ge_319 x_54181 y_2169)
			(minus_340 z_1935 x_54181 y_2169)
			(mod_321 r_392 z_1935 y_2169))
		(mod_321 r_392 x_54181 y_2169))))
(declare-datatypes ((list_224 0)) (((nil_254 ) (cons_224 (head_448 Nat_540) (tail_448 list_224)))))
(declare-fun diseqlist_224 (list_224 list_224) Bool)
(declare-fun head_449 (Nat_540 list_224) Bool)
(declare-fun tail_449 (list_224 list_224) Bool)
(declare-fun isnil_254 (list_224) Bool)
(declare-fun iscons_224 (list_224) Bool)
(assert (forall ((x_54183 Nat_540) (x_54184 list_224))
	(head_449 x_54183 (cons_224 x_54183 x_54184))))
(assert (forall ((x_54183 Nat_540) (x_54184 list_224))
	(tail_449 x_54184 (cons_224 x_54183 x_54184))))
(assert (isnil_254 nil_254))
(assert (forall ((x_54186 Nat_540) (x_54187 list_224))
	(iscons_224 (cons_224 x_54186 x_54187))))
(assert (forall ((x_54188 Nat_540) (x_54189 list_224))
	(diseqlist_224 nil_254 (cons_224 x_54188 x_54189))))
(assert (forall ((x_54190 Nat_540) (x_54191 list_224))
	(diseqlist_224 (cons_224 x_54190 x_54191) nil_254)))
(assert (forall ((x_54192 Nat_540) (x_54193 list_224) (x_54194 Nat_540) (x_54195 list_224))
	(=> (diseqNat_540 x_54192 x_54194)
	    (diseqlist_224 (cons_224 x_54192 x_54193) (cons_224 x_54194 x_54195)))))
(assert (forall ((x_54192 Nat_540) (x_54193 list_224) (x_54194 Nat_540) (x_54195 list_224))
	(=> (diseqlist_224 x_54193 x_54195)
	    (diseqlist_224 (cons_224 x_54192 x_54193) (cons_224 x_54194 x_54195)))))
(declare-datatypes ((Nat_539 0)) (((Z_1931 ) (S_428 (projS_152 Nat_539)))))
(declare-fun diseqNat_539 (Nat_539 Nat_539) Bool)
(declare-fun projS_153 (Nat_539 Nat_539) Bool)
(declare-fun isZ_395 (Nat_539) Bool)
(declare-fun isS_395 (Nat_539) Bool)
(assert (forall ((x_54197 Nat_539))
	(projS_153 x_54197 (S_428 x_54197))))
(assert (isZ_395 Z_1931))
(assert (forall ((x_54199 Nat_539))
	(isS_395 (S_428 x_54199))))
(assert (forall ((x_54200 Nat_539))
	(diseqNat_539 Z_1931 (S_428 x_54200))))
(assert (forall ((x_54201 Nat_539))
	(diseqNat_539 (S_428 x_54201) Z_1931)))
(assert (forall ((x_54202 Nat_539) (x_54203 Nat_539))
	(=> (diseqNat_539 x_54202 x_54203)
	    (diseqNat_539 (S_428 x_54202) (S_428 x_54203)))))
(declare-fun length_41 (Nat_539 list_224) Bool)
(assert (forall ((x_54167 Nat_539) (y_2165 Nat_540) (xs_614 list_224))
	(=> (length_41 x_54167 xs_614)
	    (length_41 (S_428 x_54167) (cons_224 y_2165 xs_614)))))
(assert (length_41 Z_1931 nil_254))
(declare-fun x_54160 (list_224 list_224 list_224) Bool)
(assert (forall ((x_54170 list_224) (z_1932 Nat_540) (xs_615 list_224) (y_2166 list_224))
	(=> (x_54160 x_54170 xs_615 y_2166)
	    (x_54160 (cons_224 z_1932 x_54170) (cons_224 z_1932 xs_615) y_2166))))
(assert (forall ((x_54171 list_224))
	(x_54160 x_54171 nil_254 x_54171)))
(declare-fun rotate_5 (list_224 Nat_539 list_224) Bool)
(assert (forall ((x_54172 list_224) (x_54173 list_224) (x_54163 Nat_540) (x_54164 list_224) (z_1933 Nat_539))
	(=>	(and (x_54160 x_54173 x_54164 (cons_224 x_54163 nil_254))
			(rotate_5 x_54172 z_1933 x_54173))
		(rotate_5 x_54172 (S_428 z_1933) (cons_224 x_54163 x_54164)))))
(assert (forall ((z_1933 Nat_539))
	(rotate_5 nil_254 (S_428 z_1933) nil_254)))
(assert (forall ((x_54176 list_224))
	(rotate_5 x_54176 Z_1931 x_54176)))
(assert (forall ((x_54177 Nat_539) (x_54178 list_224) (x_54179 list_224) (x_54180 list_224) (x_54165 list_224) (y_2168 list_224))
	(=>	(and true
			(diseqlist_224 x_54179 x_54180)
			(length_41 x_54177 x_54165)
			(x_54160 x_54178 x_54165 y_2168)
			(rotate_5 x_54179 x_54177 x_54178)
			(x_54160 x_54180 y_2168 x_54165))
		false)))
(check-sat)
